benchmarks/VRPTW/TSPTW/solution/n60w120.004.txt.solution
1 50 49 57 9 26 14 11 13 34 28 44 59 36 30 12 39 4 10 23 56 24 5 31 55 42 51 35 3 22 19 2 7 45 15 25 8 16 47 6 43 21 48 18 41 20 29 32 40 27 46 53 38 54 60 17 33 37 58 61 52 
490
